\ LP format - for model browsing. Use MPS format to capture full model detail.
Minimize
  y
Subject To
 c1: x1 + 19 r1 <= 5
 c2: - y + y1 <= -20
 c3: x1 + 19 r1 - 30 p12 - 30 q12 - x2 <= -1
 c4: - 19 r1 + y1 - 30 p12 + 30 q12 - y2 <= 10
 c5: x1 - 30 p12 + 30 q12 - x2 - 21 r2 >= -29
 c6: y1 - 30 p12 - 30 q12 + 21 r2 - y2 >= -38
 c7: x1 + 19 r1 - 30 p13 - 30 q13 - x3 <= -1
 c8: - 19 r1 + y1 - 30 p13 + 30 q13 - y3 <= 10
 c9: x1 - 30 p13 + 30 q13 - x3 - 19 r3 >= -29
 c10: y1 - 30 p13 - 30 q13 + 19 r3 - y3 >= -40
 c11: x1 + 19 r1 - 30 p14 - 30 q14 - x4 <= -1
 c12: - 19 r1 + y1 - 30 p14 + 30 q14 - y4 <= 10
 c13: x1 - 30 p14 + 30 q14 - x4 - 2.147483648e+09 r4 >= 2.147483618e+09
 c14: y1 - 30 p14 - 30 q14 + 2.147483648e+09 r4 - y4 >= -60
 c15: x2 + 21 r2 <= 5
 c16: - y + y2 <= -22
 c17: x2 + 21 r2 - 30 p23 - 30 q23 - x3 <= -1
 c18: - 21 r2 + y2 - 30 p23 + 30 q23 - y3 <= 8
 c19: x2 - 30 p23 + 30 q23 - x3 - 19 r3 >= -29
 c20: y2 - 30 p23 - 30 q23 + 19 r3 - y3 >= -40
 c21: x2 + 21 r2 - 30 p24 - 30 q24 - x4 <= -1
 c22: - 21 r2 + y2 - 30 p24 + 30 q24 - y4 <= 8
 c23: x2 - 30 p24 + 30 q24 - x4 - 2.147483648e+09 r4 >= 2.147483618e+09
 c24: y2 - 30 p24 - 30 q24 + 2.147483648e+09 r4 - y4 >= -60
 c25: x3 + 19 r3 <= 5
 c26: - y + y3 <= -20
 c27: x3 + 19 r3 - 30 p34 - 30 q34 - x4 <= -1
 c28: - 19 r3 + y3 - 30 p34 + 30 q34 - y4 <= 10
 c29: x3 - 30 p34 + 30 q34 - x4 - 2.147483648e+09 r4 >= 2.147483618e+09
 c30: y3 - 30 p34 - 30 q34 + 2.147483648e+09 r4 - y4 >= -60
 c31: x4 + 2.147483648e+09 r4 <= -2.147483642e+09
 c32: - y + y4 <= 0
Bounds
 r1 <= 1
 r2 <= 1
 r3 <= 1
 r4 <= 1
Binaries
 p12 q12 p13 q13 p14 q14 p23 q23 p24 q24 p34 q34
Generals
 x1 r1 y1 x2 r2 y2 x3 r3 y3 x4 r4 y4
End
